131
0 60 84 28 110 4 107 109 123 70 
42 103 48 102 71 75 115 88 85 36 
116 64 9 35 119 96 38 56 90 30 
39 1 19 78 34 21 99 104 69 16 
66 33 105 120 100 86 44 54 40 17 
130 27 126 79 61 5 45 81 76 112 
11 26 73 41 121 124 46 122 65 59 
3 31 74 101 129 97 111 98 127 32 
52 77 128 89 6 114 12 62 43 72 
20 7 125 93 14 15 87 95 8 2 
18 80 47 92 57 83 10 55 24 51 
117 50 58 113 67 94 29 108 23 37 
13 49 68 25 118 63 91 53 22 106 
82 
